sets/C/cp-n37-k6.vrp
NAME : (null)
COMMENT : (null)
TYPE : CVRP
DIMENSION : 37
EDGE_WEIGHT_TYPE : EUC_2D
CAPACITY : 81
NODE_COORD_SECTION
 1   7  11
 2   7   1
 3  26   2
 4  25  22
 5  10  26
 6   6  30
 7  10   0
 8  10   6
 9   7   9
10   8   3
11  16  29
12  17   3
13  18   3
14  28  22
15  17   9
16  19  19
17  25  18
18   3  22
19  32  29
20  26   5
21  17   8
22  23   9
23  22   4
24   3  24
25   0  19
26  25  30
27  19  18
28  14  25
29  23  26
30   6  12
31   7   4
32  33   5
33   9  35
34  15  14
35  11  20
36  17  26
37  15  31
DEMAND_SECTION
 1   0
 2  12
 3  12
 4   1
 5   9
 6  12
 7  13
 8   7
 9  24
10  14
11  24
12  24
13   6
14  16
15  15
16  22
17  20
18   2
19  11
20  21
21  11
22   1
23   5
24   5
25  18
26   6
27   2
28  11
29  24
30  19
31  21
32   9
33   8
34  19
35  17
36  11
37   4
DEPOT_SECTION
 1
-1
EOF