sets/C/cp-n37-k6.opt
Route #1: 30 1 9 7 8
Route #2: 33 14 12 11 6
Route #3: 26 3 28 25 18 13 16
Route #4: 34 23 17 24 29
Route #5: 20 22 2 31 19 21 15
Route #6: 27 35 10 36 32 5 4
cost 288
